NAME : 3
COMMENT : Generated instance No. 3
TYPE : CVRP
DIMENSION : 21
EDGE_WEIGHT_TYPE : EUC_2D
CAPACITY : 25
NODE_COORD_SECTION
 1 500 500
 2 642 84
 3 161 898
 4 606 9
 5 101 663
 6 5 160
 7 548 691
 8 651 224
 9 712 237
 10 325 746
 11 649 849
 12 657 568
 13 93 367
 14 265 243
 15 973 393
 16 892 631
 17 794 502
 18 576 492
 19 195 722
 20 280 24
 21 645 177
DEMAND_SECTION
1 0
2 4
3 6
4 5
5 6
6 5
7 6
8 3
9 4
10 1
11 5
12 8
13 5
14 1
15 6
16 5
17 7
18 3
19 4
20 1
21 4
DEPOT_SECTION
 1
 -1
EOF